db/data/87532719269925614236170013068610332.z3.out
-------------------
2500.121974687
